(set-logic HORN)
(declare-datatypes ((Bool_33 0)) (((false_33 ) (true_33 ))))
(declare-fun diseqBool_11 (Bool_33 Bool_33) Bool)
(declare-fun isfalse_11 (Bool_33) Bool)
(declare-fun istrue_11 (Bool_33) Bool)
(assert (isfalse_11 false_33))
(assert (istrue_11 true_33))
(assert (diseqBool_11 false_33 true_33))
(assert (diseqBool_11 true_33 false_33))
(declare-fun and_33 (Bool_33 Bool_33 Bool_33) Bool)
(declare-fun or_33 (Bool_33 Bool_33 Bool_33) Bool)
(declare-fun hence_33 (Bool_33 Bool_33 Bool_33) Bool)
(declare-fun not_33 (Bool_33 Bool_33) Bool)
(assert (and_33 false_33 false_33 false_33))
(assert (and_33 false_33 true_33 false_33))
(assert (and_33 false_33 false_33 true_33))
(assert (and_33 true_33 true_33 true_33))
(assert (or_33 false_33 false_33 false_33))
(assert (or_33 true_33 true_33 false_33))
(assert (or_33 true_33 false_33 true_33))
(assert (or_33 true_33 true_33 true_33))
(assert (hence_33 true_33 false_33 false_33))
(assert (hence_33 false_33 true_33 false_33))
(assert (hence_33 true_33 false_33 true_33))
(assert (hence_33 true_33 true_33 true_33))
(assert (not_33 true_33 false_33))
(assert (not_33 false_33 true_33))
(declare-datatypes ((Nat_63 0)) (((Z_180 ) (S_63 (projS_60 Nat_63)))))
(declare-fun diseqNat_63 (Nat_63 Nat_63) Bool)
(declare-fun projS_61 (Nat_63 Nat_63) Bool)
(declare-fun isZ_63 (Nat_63) Bool)
(declare-fun isS_63 (Nat_63) Bool)
(assert (forall ((x_1815 Nat_63))
	(projS_61 x_1815 (S_63 x_1815))))
(assert (isZ_63 Z_180))
(assert (forall ((x_1817 Nat_63))
	(isS_63 (S_63 x_1817))))
(assert (forall ((x_1818 Nat_63))
	(diseqNat_63 Z_180 (S_63 x_1818))))
(assert (forall ((x_1819 Nat_63))
	(diseqNat_63 (S_63 x_1819) Z_180)))
(assert (forall ((x_1820 Nat_63) (x_1821 Nat_63))
	(=> (diseqNat_63 x_1820 x_1821)
	    (diseqNat_63 (S_63 x_1820) (S_63 x_1821)))))
(declare-datatypes ((list_31 0)) (((nil_31 ) (cons_31 (head_62 Nat_63) (tail_62 list_31)))))
(declare-fun diseqlist_31 (list_31 list_31) Bool)
(declare-fun head_63 (Nat_63 list_31) Bool)
(declare-fun tail_63 (list_31 list_31) Bool)
(declare-fun isnil_31 (list_31) Bool)
(declare-fun iscons_31 (list_31) Bool)
(assert (forall ((x_1823 Nat_63) (x_1824 list_31))
	(head_63 x_1823 (cons_31 x_1823 x_1824))))
(assert (forall ((x_1823 Nat_63) (x_1824 list_31))
	(tail_63 x_1824 (cons_31 x_1823 x_1824))))
(assert (isnil_31 nil_31))
(assert (forall ((x_1826 Nat_63) (x_1827 list_31))
	(iscons_31 (cons_31 x_1826 x_1827))))
(assert (forall ((x_1828 Nat_63) (x_1829 list_31))
	(diseqlist_31 nil_31 (cons_31 x_1828 x_1829))))
(assert (forall ((x_1830 Nat_63) (x_1831 list_31))
	(diseqlist_31 (cons_31 x_1830 x_1831) nil_31)))
(assert (forall ((x_1832 Nat_63) (x_1833 list_31) (x_1834 Nat_63) (x_1835 list_31))
	(=> (diseqNat_63 x_1832 x_1834)
	    (diseqlist_31 (cons_31 x_1832 x_1833) (cons_31 x_1834 x_1835)))))
(assert (forall ((x_1832 Nat_63) (x_1833 list_31) (x_1834 Nat_63) (x_1835 list_31))
	(=> (diseqlist_31 x_1833 x_1835)
	    (diseqlist_31 (cons_31 x_1832 x_1833) (cons_31 x_1834 x_1835)))))
(declare-fun x_1780 (Bool_33 Nat_63 Nat_63) Bool)
(assert (forall ((x_1788 Bool_33) (y_143 Nat_63) (x_1782 Nat_63))
	(=> (x_1780 x_1788 x_1782 y_143)
	    (x_1780 x_1788 (S_63 x_1782) (S_63 y_143)))))
(assert (forall ((x_1782 Nat_63))
	(x_1780 false_33 (S_63 x_1782) Z_180)))
(assert (forall ((z_181 Nat_63))
	(x_1780 false_33 Z_180 (S_63 z_181))))
(assert (x_1780 true_33 Z_180 Z_180))
(declare-fun count_4 (Nat_63 Nat_63 list_31) Bool)
(assert (forall ((x_1795 Nat_63) (z_182 Nat_63) (ys_17 list_31) (x_1783 Nat_63))
	(=>	(and (count_4 x_1795 x_1783 ys_17)
			(x_1780 true_33 x_1783 z_182))
		(count_4 (S_63 x_1795) x_1783 (cons_31 z_182 ys_17)))))
(assert (forall ((x_1797 Nat_63) (z_182 Nat_63) (ys_17 list_31) (x_1783 Nat_63))
	(=>	(and (count_4 x_1797 x_1783 ys_17)
			(x_1780 false_33 x_1783 z_182))
		(count_4 x_1797 x_1783 (cons_31 z_182 ys_17)))))
(assert (forall ((x_1783 Nat_63))
	(count_4 Z_180 x_1783 nil_31)))
(declare-fun x_1784 (Nat_63 Nat_63 Nat_63) Bool)
(assert (forall ((x_1801 Nat_63) (z_183 Nat_63) (y_145 Nat_63))
	(=> (x_1784 x_1801 z_183 y_145)
	    (x_1784 (S_63 x_1801) (S_63 z_183) y_145))))
(assert (forall ((x_1802 Nat_63))
	(x_1784 x_1802 Z_180 x_1802)))
(declare-fun x_1786 (list_31 list_31 list_31) Bool)
(assert (forall ((x_1804 list_31) (z_184 Nat_63) (xs_49 list_31) (y_146 list_31))
	(=> (x_1786 x_1804 xs_49 y_146)
	    (x_1786 (cons_31 z_184 x_1804) (cons_31 z_184 xs_49) y_146))))
(assert (forall ((x_1805 list_31))
	(x_1786 x_1805 nil_31 x_1805)))
(assert (forall ((x_1806 Nat_63) (x_1807 Nat_63) (x_1808 Nat_63) (x_1809 list_31) (x_1810 Nat_63) (n_14 Nat_63) (xs_50 list_31) (ys_18 list_31))
	(=>	(and true
			(diseqNat_63 x_1808 x_1810)
			(count_4 x_1806 n_14 xs_50)
			(count_4 x_1807 n_14 ys_18)
			(x_1784 x_1808 x_1806 x_1807)
			(x_1786 x_1809 xs_50 ys_18)
			(count_4 x_1810 n_14 x_1809))
		false)))
(check-sat)
